/*********************************************
 * OPL 12.7.1.0 Data
 * Author: pique
 * Creation Date: 24/10/2017 at 11.39.24
 *********************************************/
// FEASIBLE
// COST 14
minHours=5;
maxHours=17;
maxConsec=13;
maxPresence=18;
demand=[2 4 6 8 8 10 9 9 10 10 7 9 9 9 8 8 7 7 6 5 3 1 0 1];
nNurses=14;